p cnf 310 1188
-186 -187 0
-186 -188 0
-187 -188 0
-189 -190 0
-1 186 0
-1 189 0
-2 186 0
-2 190 0
-3 187 0
-3 189 0
-4 187 0
-4 190 0
-5 188 0
-5 189 0
-1 31 0
-1 6 0
-2 32 0
-2 7 0
-3 33 0
-3 8 0
-4 34 0
-4 9 0
-5 35 0
-5 10 0
-191 -192 0
-191 -193 0
-192 -193 0
-194 -195 0
-6 191 0
-6 194 0
-7 191 0
-7 195 0
-8 192 0
-8 194 0
-9 192 0
-9 195 0
-10 193 0
-10 194 0
-6 1 11 0
-6 1 36 0
-6 11 36 0
-7 2 12 0
-7 2 37 0
-7 12 37 0
-8 3 13 0
-8 3 38 0
-8 13 38 0
-9 4 14 0
-9 4 39 0
-9 14 39 0
-10 5 15 0
-10 5 40 0
-10 15 40 0
-6 -1 -11 -36 0
-7 -2 -12 -37 0
-8 -3 -13 -38 0
-9 -4 -14 -39 0
-10 -5 -15 -40 0
-196 -197 0
-196 -198 0
-197 -198 0
-199 -200 0
-11 196 0
-11 199 0
-12 196 0
-12 200 0
-13 197 0
-13 199 0
-14 197 0
-14 200 0
-15 198 0
-15 199 0
-11 6 16 0
-11 6 41 0
-11 16 41 0
-12 7 17 0
-12 7 42 0
-12 17 42 0
-13 8 18 0
-13 8 43 0
-13 18 43 0
-14 9 19 0
-14 9 44 0
-14 19 44 0
-15 10 20 0
-15 10 45 0
-15 20 45 0
-11 -6 -16 -41 0
-12 -7 -17 -42 0
-13 -8 -18 -43 0
-14 -9 -19 -44 0
-15 -10 -20 -45 0
-201 -202 0
-201 -203 0
-202 -203 0
-204 -205 0
-16 201 0
-16 204 0
-17 201 0
-17 205 0
-18 202 0
-18 204 0
-19 202 0
-19 205 0
-20 203 0
-20 204 0
-16 11 21 0
-16 11 46 0
-16 21 46 0
-17 12 22 0
-17 12 47 0
-17 22 47 0
-18 13 23 0
-18 13 48 0
-18 23 48 0
-19 14 24 0
-19 14 49 0
-19 24 49 0
-20 15 25 0
-20 15 50 0
-20 25 50 0
-16 -11 -21 -46 0
-17 -12 -22 -47 0
-18 -13 -23 -48 0
-19 -14 -24 -49 0
-20 -15 -25 -50 0
-206 -207 0
-206 -208 0
-207 -208 0
-209 -210 0
-21 206 0
-21 209 0
-22 206 0
-22 210 0
-23 207 0
-23 209 0
-24 207 0
-24 210 0
-25 208 0
-25 209 0
-21 16 26 0
-21 16 51 0
-21 26 51 0
-22 17 27 0
-22 17 52 0
-22 27 52 0
-23 18 28 0
-23 18 53 0
-23 28 53 0
-24 19 29 0
-24 19 54 0
-24 29 54 0
-25 20 30 0
-25 20 55 0
-25 30 55 0
-21 -16 -26 -51 0
-22 -17 -27 -52 0
-23 -18 -28 -53 0
-24 -19 -29 -54 0
-25 -20 -30 -55 0
-211 -212 0
-211 -213 0
-212 -213 0
-214 -215 0
-26 211 0
-26 214 0
-27 211 0
-27 215 0
-28 212 0
-28 214 0
-29 212 0
-29 215 0
-30 213 0
-30 214 0
-26 56 0
-26 21 0
-27 57 0
-27 22 0
-28 58 0
-28 23 0
-29 59 0
-29 24 0
-30 60 0
-30 25 0
-216 -217 0
-216 -218 0
-217 -218 0
-219 -220 0
-31 216 0
-31 219 0
-32 216 0
-32 220 0
-33 217 0
-33 219 0
-34 217 0
-34 220 0
-35 218 0
-35 219 0
-31 61 36 0
-31 61 1 0
-31 36 1 0
-32 62 37 0
-32 62 2 0
-32 37 2 0
-33 63 38 0
-33 63 3 0
-33 38 3 0
-34 64 39 0
-34 64 4 0
-34 39 4 0
-35 65 40 0
-35 65 5 0
-35 40 5 0
-31 -61 -36 -1 0
-32 -62 -37 -2 0
-33 -63 -38 -3 0
-34 -64 -39 -4 0
-35 -65 -40 -5 0
36 0
-37 0
-38 0
-39 0
-40 0
66 41 6 31 0
-66 -41 0
-66 -6 0
-66 -31 0
-41 -6 0
-41 -31 0
-6 -31 0
42 0
-41 0
-43 0
-44 0
-45 0
72 47 12 37 0
-72 -47 0
-72 -12 0
-72 -37 0
-47 -12 0
-47 -37 0
-12 -37 0
-231 -232 0
-231 -233 0
-232 -233 0
-234 -235 0
-46 231 0
-46 234 0
-47 231 0
-47 235 0
-48 232 0
-48 234 0
-49 232 0
-49 235 0
-50 233 0
-50 234 0
-46 76 51 16 0
-46 76 51 41 0
-46 76 16 41 0
-46 51 16 41 0
-47 77 52 17 0
-47 77 52 42 0
-47 77 17 42 0
-47 52 17 42 0
-48 78 53 18 0
-48 78 53 43 0
-48 78 18 43 0
-48 53 18 43 0
-49 79 54 19 0
-49 79 54 44 0
-49 79 19 44 0
-49 54 19 44 0
-50 80 55 20 0
-50 80 55 45 0
-50 80 20 45 0
-50 55 20 45 0
-46 -76 -51 -16 0
-46 -76 -51 -41 0
-46 -76 -16 -41 0
-46 -51 -16 -41 0
-47 -77 -52 -17 0
-47 -77 -52 -42 0
-47 -77 -17 -42 0
-47 -52 -17 -42 0
-48 -78 -53 -18 0
-48 -78 -53 -43 0
-48 -78 -18 -43 0
-48 -53 -18 -43 0
-49 -79 -54 -19 0
-49 -79 -54 -44 0
-49 -79 -19 -44 0
-49 -54 -19 -44 0
-50 -80 -55 -20 0
-50 -80 -55 -45 0
-50 -80 -20 -45 0
-50 -55 -20 -45 0
-236 -237 0
-236 -238 0
-237 -238 0
-239 -240 0
-51 236 0
-51 239 0
-52 236 0
-52 240 0
-53 237 0
-53 239 0
-54 237 0
-54 240 0
-55 238 0
-55 239 0
-51 81 56 21 0
-51 81 56 46 0
-51 81 21 46 0
-51 56 21 46 0
-52 82 57 22 0
-52 82 57 47 0
-52 82 22 47 0
-52 57 22 47 0
-53 83 58 23 0
-53 83 58 48 0
-53 83 23 48 0
-53 58 23 48 0
-54 84 59 24 0
-54 84 59 49 0
-54 84 24 49 0
-54 59 24 49 0
-55 85 60 25 0
-55 85 60 50 0
-55 85 25 50 0
-55 60 25 50 0
-51 -81 -56 -21 0
-51 -81 -56 -46 0
-51 -81 -21 -46 0
-51 -56 -21 -46 0
-52 -82 -57 -22 0
-52 -82 -57 -47 0
-52 -82 -22 -47 0
-52 -57 -22 -47 0
-53 -83 -58 -23 0
-53 -83 -58 -48 0
-53 -83 -23 -48 0
-53 -58 -23 -48 0
-54 -84 -59 -24 0
-54 -84 -59 -49 0
-54 -84 -24 -49 0
-54 -59 -24 -49 0
-55 -85 -60 -25 0
-55 -85 -60 -50 0
-55 -85 -25 -50 0
-55 -60 -25 -50 0
-241 -242 0
-241 -243 0
-242 -243 0
-244 -245 0
-56 241 0
-56 244 0
-57 241 0
-57 245 0
-58 242 0
-58 244 0
-59 242 0
-59 245 0
-60 243 0
-60 244 0
-56 86 51 0
-56 86 26 0
-56 51 26 0
-57 87 52 0
-57 87 27 0
-57 52 27 0
-58 88 53 0
-58 88 28 0
-58 53 28 0
-59 89 54 0
-59 89 29 0
-59 54 29 0
-60 90 55 0
-60 90 30 0
-60 55 30 0
-56 -86 -51 -26 0
-57 -87 -52 -27 0
-58 -88 -53 -28 0
-59 -89 -54 -29 0
-60 -90 -55 -30 0
-246 -247 0
-246 -248 0
-247 -248 0
-249 -250 0
-61 246 0
-61 249 0
-62 246 0
-62 250 0
-63 247 0
-63 249 0
-64 247 0
-64 250 0
-65 248 0
-65 249 0
-61 91 66 0
-61 91 31 0
-61 66 31 0
-62 92 67 0
-62 92 32 0
-62 67 32 0
-63 93 68 0
-63 93 33 0
-63 68 33 0
-64 94 69 0
-64 94 34 0
-64 69 34 0
-65 95 70 0
-65 95 35 0
-65 70 35 0
-61 -91 -66 -31 0
-62 -92 -67 -32 0
-63 -93 -68 -33 0
-64 -94 -69 -34 0
-65 -95 -70 -35 0
-251 -252 0
-251 -253 0
-252 -253 0
-254 -255 0
-66 251 0
-66 254 0
-67 251 0
-67 255 0
-68 252 0
-68 254 0
-69 252 0
-69 255 0
-70 253 0
-70 254 0
-66 96 71 36 0
-66 96 71 61 0
-66 96 36 61 0
-66 71 36 61 0
-67 97 72 37 0
-67 97 72 62 0
-67 97 37 62 0
-67 72 37 62 0
-68 98 73 38 0
-68 98 73 63 0
-68 98 38 63 0
-68 73 38 63 0
-69 99 74 39 0
-69 99 74 64 0
-69 99 39 64 0
-69 74 39 64 0
-70 100 75 40 0
-70 100 75 65 0
-70 100 40 65 0
-70 75 40 65 0
-66 -96 -71 -36 0
-66 -96 -71 -61 0
-66 -96 -36 -61 0
-66 -71 -36 -61 0
-67 -97 -72 -37 0
-67 -97 -72 -62 0
-67 -97 -37 -62 0
-67 -72 -37 -62 0
-68 -98 -73 -38 0
-68 -98 -73 -63 0
-68 -98 -38 -63 0
-68 -73 -38 -63 0
-69 -99 -74 -39 0
-69 -99 -74 -64 0
-69 -99 -39 -64 0
-69 -74 -39 -64 0
-70 -100 -75 -40 0
-70 -100 -75 -65 0
-70 -100 -40 -65 0
-70 -75 -40 -65 0
-256 -257 0
-256 -258 0
-257 -258 0
-259 -260 0
-71 256 0
-71 259 0
-72 256 0
-72 260 0
-73 257 0
-73 259 0
-74 257 0
-74 260 0
-75 258 0
-75 259 0
-71 101 76 41 0
-71 101 76 66 0
-71 101 41 66 0
-71 76 41 66 0
-72 102 77 42 0
-72 102 77 67 0
-72 102 42 67 0
-72 77 42 67 0
-73 103 78 43 0
-73 103 78 68 0
-73 103 43 68 0
-73 78 43 68 0
-74 104 79 44 0
-74 104 79 69 0
-74 104 44 69 0
-74 79 44 69 0
-75 105 80 45 0
-75 105 80 70 0
-75 105 45 70 0
-75 80 45 70 0
-71 -101 -76 -41 0
-71 -101 -76 -66 0
-71 -101 -41 -66 0
-71 -76 -41 -66 0
-72 -102 -77 -42 0
-72 -102 -77 -67 0
-72 -102 -42 -67 0
-72 -77 -42 -67 0
-73 -103 -78 -43 0
-73 -103 -78 -68 0
-73 -103 -43 -68 0
-73 -78 -43 -68 0
-74 -104 -79 -44 0
-74 -104 -79 -69 0
-74 -104 -44 -69 0
-74 -79 -44 -69 0
-75 -105 -80 -45 0
-75 -105 -80 -70 0
-75 -105 -45 -70 0
-75 -80 -45 -70 0
76 0
-77 0
-78 0
-79 0
-80 0
106 81 46 71 0
-106 -81 0
-106 -46 0
-106 -71 0
-81 -46 0
-81 -71 0
-46 -71 0
-266 -267 0
-266 -268 0
-267 -268 0
-269 -270 0
-81 266 0
-81 269 0
-82 266 0
-82 270 0
-83 267 0
-83 269 0
-84 267 0
-84 270 0
-85 268 0
-85 269 0
-81 111 86 51 0
-81 111 86 76 0
-81 111 51 76 0
-81 86 51 76 0
-82 112 87 52 0
-82 112 87 77 0
-82 112 52 77 0
-82 87 52 77 0
-83 113 88 53 0
-83 113 88 78 0
-83 113 53 78 0
-83 88 53 78 0
-84 114 89 54 0
-84 114 89 79 0
-84 114 54 79 0
-84 89 54 79 0
-85 115 90 55 0
-85 115 90 80 0
-85 115 55 80 0
-85 90 55 80 0
-81 -111 -86 -51 0
-81 -111 -86 -76 0
-81 -111 -51 -76 0
-81 -86 -51 -76 0
-82 -112 -87 -52 0
-82 -112 -87 -77 0
-82 -112 -52 -77 0
-82 -87 -52 -77 0
-83 -113 -88 -53 0
-83 -113 -88 -78 0
-83 -113 -53 -78 0
-83 -88 -53 -78 0
-84 -114 -89 -54 0
-84 -114 -89 -79 0
-84 -114 -54 -79 0
-84 -89 -54 -79 0
-85 -115 -90 -55 0
-85 -115 -90 -80 0
-85 -115 -55 -80 0
-85 -90 -55 -80 0
-271 -272 0
-271 -273 0
-272 -273 0
-274 -275 0
-86 271 0
-86 274 0
-87 271 0
-87 275 0
-88 272 0
-88 274 0
-89 272 0
-89 275 0
-90 273 0
-90 274 0
-86 116 81 0
-86 116 56 0
-86 81 56 0
-87 117 82 0
-87 117 57 0
-87 82 57 0
-88 118 83 0
-88 118 58 0
-88 83 58 0
-89 119 84 0
-89 119 59 0
-89 84 59 0
-90 120 85 0
-90 120 60 0
-90 85 60 0
-86 -116 -81 -56 0
-87 -117 -82 -57 0
-88 -118 -83 -58 0
-89 -119 -84 -59 0
-90 -120 -85 -60 0
94 0
-91 0
-92 0
-93 0
-95 0
124 99 64 0
-124 -99 0
-124 -64 0
-99 -64 0
-281 -282 0
-281 -283 0
-282 -283 0
-284 -285 0
-96 281 0
-96 284 0
-97 281 0
-97 285 0
-98 282 0
-98 284 0
-99 282 0
-99 285 0
-100 283 0
-100 284 0
-96 126 101 66 0
-96 126 101 91 0
-96 126 66 91 0
-96 101 66 91 0
-97 127 102 67 0
-97 127 102 92 0
-97 127 67 92 0
-97 102 67 92 0
-98 128 103 68 0
-98 128 103 93 0
-98 128 68 93 0
-98 103 68 93 0
-99 129 104 69 0
-99 129 104 94 0
-99 129 69 94 0
-99 104 69 94 0
-100 130 105 70 0
-100 130 105 95 0
-100 130 70 95 0
-100 105 70 95 0
-96 -126 -101 -66 0
-96 -126 -101 -91 0
-96 -126 -66 -91 0
-96 -101 -66 -91 0
-97 -127 -102 -67 0
-97 -127 -102 -92 0
-97 -127 -67 -92 0
-97 -102 -67 -92 0
-98 -128 -103 -68 0
-98 -128 -103 -93 0
-98 -128 -68 -93 0
-98 -103 -68 -93 0
-99 -129 -104 -69 0
-99 -129 -104 -94 0
-99 -129 -69 -94 0
-99 -104 -69 -94 0
-100 -130 -105 -70 0
-100 -130 -105 -95 0
-100 -130 -70 -95 0
-100 -105 -70 -95 0
-286 -287 0
-286 -288 0
-287 -288 0
-289 -290 0
-101 286 0
-101 289 0
-102 286 0
-102 290 0
-103 287 0
-103 289 0
-104 287 0
-104 290 0
-105 288 0
-105 289 0
-101 131 106 71 0
-101 131 106 96 0
-101 131 71 96 0
-101 106 71 96 0
-102 132 107 72 0
-102 132 107 97 0
-102 132 72 97 0
-102 107 72 97 0
-103 133 108 73 0
-103 133 108 98 0
-103 133 73 98 0
-103 108 73 98 0
-104 134 109 74 0
-104 134 109 99 0
-104 134 74 99 0
-104 109 74 99 0
-105 135 110 75 0
-105 135 110 100 0
-105 135 75 100 0
-105 110 75 100 0
-101 -131 -106 -71 0
-101 -131 -106 -96 0
-101 -131 -71 -96 0
-101 -106 -71 -96 0
-102 -132 -107 -72 0
-102 -132 -107 -97 0
-102 -132 -72 -97 0
-102 -107 -72 -97 0
-103 -133 -108 -73 0
-103 -133 -108 -98 0
-103 -133 -73 -98 0
-103 -108 -73 -98 0
-104 -134 -109 -74 0
-104 -134 -109 -99 0
-104 -134 -74 -99 0
-104 -109 -74 -99 0
-105 -135 -110 -75 0
-105 -135 -110 -100 0
-105 -135 -75 -100 0
-105 -110 -75 -100 0
-291 -292 0
-291 -293 0
-292 -293 0
-294 -295 0
-106 291 0
-106 294 0
-107 291 0
-107 295 0
-108 292 0
-108 294 0
-109 292 0
-109 295 0
-110 293 0
-110 294 0
-106 136 111 76 0
-106 136 111 101 0
-106 136 76 101 0
-106 111 76 101 0
-107 137 112 77 0
-107 137 112 102 0
-107 137 77 102 0
-107 112 77 102 0
-108 138 113 78 0
-108 138 113 103 0
-108 138 78 103 0
-108 113 78 103 0
-109 139 114 79 0
-109 139 114 104 0
-109 139 79 104 0
-109 114 79 104 0
-110 140 115 80 0
-110 140 115 105 0
-110 140 80 105 0
-110 115 80 105 0
-106 -136 -111 -76 0
-106 -136 -111 -101 0
-106 -136 -76 -101 0
-106 -111 -76 -101 0
-107 -137 -112 -77 0
-107 -137 -112 -102 0
-107 -137 -77 -102 0
-107 -112 -77 -102 0
-108 -138 -113 -78 0
-108 -138 -113 -103 0
-108 -138 -78 -103 0
-108 -113 -78 -103 0
-109 -139 -114 -79 0
-109 -139 -114 -104 0
-109 -139 -79 -104 0
-109 -114 -79 -104 0
-110 -140 -115 -80 0
-110 -140 -115 -105 0
-110 -140 -80 -105 0
-110 -115 -80 -105 0
-296 -297 0
-296 -298 0
-297 -298 0
-299 -300 0
-111 296 0
-111 299 0
-112 296 0
-112 300 0
-113 297 0
-113 299 0
-114 297 0
-114 300 0
-115 298 0
-115 299 0
-111 141 116 81 0
-111 141 116 106 0
-111 141 81 106 0
-111 116 81 106 0
-112 142 117 82 0
-112 142 117 107 0
-112 142 82 107 0
-112 117 82 107 0
-113 143 118 83 0
-113 143 118 108 0
-113 143 83 108 0
-113 118 83 108 0
-114 144 119 84 0
-114 144 119 109 0
-114 144 84 109 0
-114 119 84 109 0
-115 145 120 85 0
-115 145 120 110 0
-115 145 85 110 0
-115 120 85 110 0
-111 -141 -116 -81 0
-111 -141 -116 -106 0
-111 -141 -81 -106 0
-111 -116 -81 -106 0
-112 -142 -117 -82 0
-112 -142 -117 -107 0
-112 -142 -82 -107 0
-112 -117 -82 -107 0
-113 -143 -118 -83 0
-113 -143 -118 -108 0
-113 -143 -83 -108 0
-113 -118 -83 -108 0
-114 -144 -119 -84 0
-114 -144 -119 -109 0
-114 -144 -84 -109 0
-114 -119 -84 -109 0
-115 -145 -120 -85 0
-115 -145 -120 -110 0
-115 -145 -85 -110 0
-115 -120 -85 -110 0
-301 -302 0
-301 -303 0
-302 -303 0
-304 -305 0
-116 301 0
-116 304 0
-117 301 0
-117 305 0
-118 302 0
-118 304 0
-119 302 0
-119 305 0
-120 303 0
-120 304 0
-116 146 111 0
-116 146 86 0
-116 111 86 0
-117 147 112 0
-117 147 87 0
-117 112 87 0
-118 148 113 0
-118 148 88 0
-118 113 88 0
-119 149 114 0
-119 149 89 0
-119 114 89 0
-120 150 115 0
-120 150 90 0
-120 115 90 0
-116 -146 -111 -86 0
-117 -147 -112 -87 0
-118 -148 -113 -88 0
-119 -149 -114 -89 0
-120 -150 -115 -90 0
125 0
-121 0
-122 0
-123 0
-124 0
155 130 95 0
-155 -130 0
-155 -95 0
-130 -95 0
-311 -312 0
-311 -313 0
-312 -313 0
-314 -315 0
-126 311 0
-126 314 0
-127 311 0
-127 315 0
-128 312 0
-128 314 0
-129 312 0
-129 315 0
-130 313 0
-130 314 0
-126 156 131 96 0
-126 156 131 121 0
-126 156 96 121 0
-126 131 96 121 0
-127 157 132 97 0
-127 157 132 122 0
-127 157 97 122 0
-127 132 97 122 0
-128 158 133 98 0
-128 158 133 123 0
-128 158 98 123 0
-128 133 98 123 0
-129 159 134 99 0
-129 159 134 124 0
-129 159 99 124 0
-129 134 99 124 0
-130 160 135 100 0
-130 160 135 125 0
-130 160 100 125 0
-130 135 100 125 0
-126 -156 -131 -96 0
-126 -156 -131 -121 0
-126 -156 -96 -121 0
-126 -131 -96 -121 0
-127 -157 -132 -97 0
-127 -157 -132 -122 0
-127 -157 -97 -122 0
-127 -132 -97 -122 0
-128 -158 -133 -98 0
-128 -158 -133 -123 0
-128 -158 -98 -123 0
-128 -133 -98 -123 0
-129 -159 -134 -99 0
-129 -159 -134 -124 0
-129 -159 -99 -124 0
-129 -134 -99 -124 0
-130 -160 -135 -100 0
-130 -160 -135 -125 0
-130 -160 -100 -125 0
-130 -135 -100 -125 0
133 0
-131 0
-132 0
-134 0
-135 0
163 138 103 128 0
-163 -138 0
-163 -103 0
-163 -128 0
-138 -103 0
-138 -128 0
-103 -128 0
-321 -322 0
-321 -323 0
-322 -323 0
-324 -325 0
-136 321 0
-136 324 0
-137 321 0
-137 325 0
-138 322 0
-138 324 0
-139 322 0
-139 325 0
-140 323 0
-140 324 0
-136 166 141 106 0
-136 166 141 131 0
-136 166 106 131 0
-136 141 106 131 0
-137 167 142 107 0
-137 167 142 132 0
-137 167 107 132 0
-137 142 107 132 0
-138 168 143 108 0
-138 168 143 133 0
-138 168 108 133 0
-138 143 108 133 0
-139 169 144 109 0
-139 169 144 134 0
-139 169 109 134 0
-139 144 109 134 0
-140 170 145 110 0
-140 170 145 135 0
-140 170 110 135 0
-140 145 110 135 0
-136 -166 -141 -106 0
-136 -166 -141 -131 0
-136 -166 -106 -131 0
-136 -141 -106 -131 0
-137 -167 -142 -107 0
-137 -167 -142 -132 0
-137 -167 -107 -132 0
-137 -142 -107 -132 0
-138 -168 -143 -108 0
-138 -168 -143 -133 0
-138 -168 -108 -133 0
-138 -143 -108 -133 0
-139 -169 -144 -109 0
-139 -169 -144 -134 0
-139 -169 -109 -134 0
-139 -144 -109 -134 0
-140 -170 -145 -110 0
-140 -170 -145 -135 0
-140 -170 -110 -135 0
-140 -145 -110 -135 0
142 0
-141 0
-143 0
-144 0
-145 0
172 147 112 137 0
-172 -147 0
-172 -112 0
-172 -137 0
-147 -112 0
-147 -137 0
-112 -137 0
-331 -332 0
-331 -333 0
-332 -333 0
-334 -335 0
-146 331 0
-146 334 0
-147 331 0
-147 335 0
-148 332 0
-148 334 0
-149 332 0
-149 335 0
-150 333 0
-150 334 0
-146 176 141 0
-146 176 116 0
-146 141 116 0
-147 177 142 0
-147 177 117 0
-147 142 117 0
-148 178 143 0
-148 178 118 0
-148 143 118 0
-149 179 144 0
-149 179 119 0
-149 144 119 0
-150 180 145 0
-150 180 120 0
-150 145 120 0
-146 -176 -141 -116 0
-147 -177 -142 -117 0
-148 -178 -143 -118 0
-149 -179 -144 -119 0
-150 -180 -145 -120 0
153 0
-151 0
-152 0
-154 0
-155 0
123 158 0
-123 -158 0
-341 -342 0
-341 -343 0
-342 -343 0
-344 -345 0
-156 341 0
-156 344 0
-157 341 0
-157 345 0
-158 342 0
-158 344 0
-159 342 0
-159 345 0
-160 343 0
-160 344 0
-156 126 161 0
-156 126 151 0
-156 161 151 0
-157 127 162 0
-157 127 152 0
-157 162 152 0
-158 128 163 0
-158 128 153 0
-158 163 153 0
-159 129 164 0
-159 129 154 0
-159 164 154 0
-160 130 165 0
-160 130 155 0
-160 165 155 0
-156 -126 -161 -151 0
-157 -127 -162 -152 0
-158 -128 -163 -153 0
-159 -129 -164 -154 0
-160 -130 -165 -155 0
-346 -347 0
-346 -348 0
-347 -348 0
-349 -350 0
-161 346 0
-161 349 0
-162 346 0
-162 350 0
-163 347 0
-163 349 0
-164 347 0
-164 350 0
-165 348 0
-165 349 0
-161 131 166 0
-161 131 156 0
-161 166 156 0
-162 132 167 0
-162 132 157 0
-162 167 157 0
-163 133 168 0
-163 133 158 0
-163 168 158 0
-164 134 169 0
-164 134 159 0
-164 169 159 0
-165 135 170 0
-165 135 160 0
-165 170 160 0
-161 -131 -166 -156 0
-162 -132 -167 -157 0
-163 -133 -168 -158 0
-164 -134 -169 -159 0
-165 -135 -170 -160 0
170 0
-166 0
-167 0
-168 0
-169 0
140 175 165 0
-140 -175 0
-140 -165 0
-175 -165 0
174 0
-171 0
-172 0
-173 0
-175 0
144 179 169 0
-144 -179 0
-144 -169 0
-179 -169 0
-361 -362 0
-361 -363 0
-362 -363 0
-364 -365 0
-176 361 0
-176 364 0
-177 361 0
-177 365 0
-178 362 0
-178 364 0
-179 362 0
-179 365 0
-180 363 0
-180 364 0
-176 146 0
-176 171 0
-177 147 0
-177 172 0
-178 148 0
-178 173 0
-179 149 0
-179 174 0
-180 150 0
-180 175 0
11 71 101 161 0
62 67 72 82 87 0
97 102 107 112 117 0
17 47 107 137 0
8 68 98 128 158 0
129 139 149 0
9 69 99 129 159 0
14 74 104 164 0
19 49 109 139 0
10 70 100 130 160 0
15 75 105 165 0